projected/problems_b25_r0_d7_m100_s666/_DIMACS/b25_d7_r0_s666_010.cnf
p cnf 295 527 25
c p show 1 2 3 4 5 6 7 8 9 10 11 12 13 14 15 16 17 18 19 20 21 22 23 24 25
-26 -13 0
-26 -23 0
-27 23 0
-27 13 0
-28 27 26 0
-29 -23 0
-29 24 0
-30 -24 0
-30 23 0
-31 30 29 0
-32 31 0
-32 28 0
-33 -20 -16 0
-34 13 0
-34 -2 0
-35 34 0
-35 33 0
-36 -13 2 0
-37 20 0
-37 16 0
-38 37 0
-38 36 0
-39 38 35 0
-40 39 0
-40 32 0
-41 14 0
-41 11 0
-42 24 -6 0
-43 42 41 0
-44 18 -22 0
-45 18 0
-45 -10 0
-46 45 44 0
-47 46 0
-47 43 0
-48 47 40 0
-49 -14 -11 0
-50 -24 0
-50 6 0
-51 50 0
-51 49 0
-52 -18 0
-52 22 0
-53 -18 10 0
-54 53 0
-54 52 0
-55 54 51 0
-56 13 23 0
-57 -23 -13 0
-58 57 0
-58 56 0
-59 23 -24 0
-60 24 -23 0
-61 60 0
-61 59 0
-62 61 58 0
-63 36 37 0
-64 33 34 0
-65 64 0
-65 63 0
-66 65 62 0
-67 66 55 0
-68 67 0
-68 48 0
-69 -10 0
-69 -24 0
-70 -15 -19 0
-71 19 15 0
-72 71 0
-72 70 0
-73 72 0
-73 69 0
-74 -4 3 0
-75 14 18 0
-76 75 0
-76 74 0
-77 76 73 0
-78 16 19 0
-79 -9 0
-79 23 0
-80 79 0
-80 78 0
-81 15 0
-81 4 0
-82 12 18 0
-83 82 81 0
-84 83 80 0
-85 84 0
-85 77 0
-86 85 68 0
-87 10 24 0
-88 15 0
-88 19 0
-89 -19 0
-89 -15 0
-90 89 88 0
-91 90 87 0
-92 4 0
-92 -3 0
-93 -14 0
-93 -18 0
-94 93 92 0
-95 94 0
-95 91 0
-96 -16 0
-96 -19 0
-97 9 -23 0
-98 97 96 0
-99 -15 -4 0
-100 -12 0
-100 -18 0
-101 100 0
-101 99 0
-102 101 0
-102 98 0
-103 102 95 0
-104 55 0
-104 66 0
-105 40 0
-105 47 0
-106 105 104 0
-107 106 103 0
-108 107 0
-108 86 0
-109 21 -3 0
-110 9 21 0
-111 110 0
-111 109 0
-112 22 18 0
-113 -12 18 0
-114 113 0
-114 112 0
-115 114 0
-115 111 0
-116 -1 2 0
-117 -23 0
-117 7 0
-118 117 0
-118 116 0
-119 -25 0
-119 24 0
-120 -5 16 0
-121 -16 5 0
-122 121 0
-122 120 0
-123 122 0
-123 119 0
-124 123 118 0
-125 124 0
-125 115 0
-126 -19 4 0
-127 -2 0
-127 -15 0
-128 127 126 0
-129 -13 -22 0
-130 15 9 0
-131 130 129 0
-132 131 0
-132 128 0
-133 25 17 0
-134 18 -3 0
-135 134 133 0
-136 15 0
-136 2 0
-137 127 136 0
-138 18 -5 0
-139 138 0
-139 137 0
-140 139 0
-140 135 0
-141 -15 -2 0
-142 2 15 0
-143 142 0
-143 141 0
-144 -18 0
-144 5 0
-145 144 143 0
-146 -25 0
-146 -17 0
-147 -18 0
-147 3 0
-148 147 0
-148 146 0
-149 148 0
-149 145 0
-150 149 140 0
-151 150 0
-151 132 0
-152 151 0
-152 125 0
-153 19 0
-153 -4 0
-154 142 0
-154 153 0
-155 13 0
-155 22 0
-156 -15 0
-156 -9 0
-157 156 0
-157 155 0
-158 157 154 0
-159 145 148 0
-160 135 139 0
-161 160 0
-161 159 0
-162 161 158 0
-163 -21 0
-163 3 0
-164 -9 0
-164 -21 0
-165 164 163 0
-166 -22 0
-166 -18 0
-167 12 0
-167 -18 0
-168 167 166 0
-169 168 165 0
-170 1 0
-170 -2 0
-171 23 -7 0
-172 171 170 0
-173 25 -24 0
-174 5 0
-174 -16 0
-175 16 0
-175 -5 0
-176 175 174 0
-177 176 173 0
-178 177 0
-178 172 0
-179 178 169 0
-180 179 0
-180 162 0
-181 180 152 0
-182 181 0
-182 108 0
-183 16 10 0
-184 5 0
-184 -19 0
-185 184 183 0
-186 7 0
-186 -2 0
-187 -5 0
-187 19 0
-188 187 0
-188 186 0
-189 188 185 0
-190 17 20 0
-191 18 0
-191 14 0
-192 191 190 0
-193 -8 0
-193 -17 0
-194 17 0
-194 8 0
-195 194 193 0
-196 4 0
-196 -24 0
-197 196 195 0
-198 197 0
-198 192 0
-199 198 189 0
-200 -21 0
-200 8 0
-201 -3 0
-201 -2 0
-202 201 200 0
-203 -9 14 0
-204 -14 9 0
-205 204 0
-205 203 0
-206 23 -14 0
-207 206 0
-207 205 0
-208 207 0
-208 202 0
-209 9 0
-209 -3 0
-210 11 0
-210 6 0
-211 210 209 0
-212 -7 0
-212 19 0
-213 -7 0
-213 -21 0
-214 213 212 0
-215 214 0
-215 211 0
-216 215 0
-216 208 0
-217 216 0
-217 199 0
-218 -18 -2 0
-219 6 -25 0
-220 219 0
-220 218 0
-221 6 0
-221 -19 0
-222 19 0
-222 -6 0
-223 222 221 0
-224 9 0
-224 -15 0
-225 224 223 0
-226 225 0
-226 220 0
-227 18 0
-227 -21 0
-228 -4 23 0
-229 228 227 0
-230 -12 -6 0
-231 -15 0
-231 24 0
-232 231 230 0
-233 15 -24 0
-234 12 0
-234 6 0
-235 234 233 0
-236 235 0
-236 232 0
-237 236 229 0
-238 233 0
-238 234 0
-239 230 0
-239 231 0
-240 239 238 0
-241 -18 21 0
-242 4 0
-242 -23 0
-243 242 0
-243 241 0
-244 243 240 0
-245 244 0
-245 237 0
-246 245 226 0
-247 -9 0
-247 22 0
-248 17 3 0
-249 248 0
-249 247 0
-250 3 0
-250 2 0
-251 -25 18 0
-252 -18 25 0
-253 252 0
-253 251 0
-254 253 0
-254 250 0
-255 25 0
-255 -18 0
-256 18 0
-256 -25 0
-257 256 255 0
-258 -3 -2 0
-259 258 0
-259 257 0
-260 259 254 0
-261 260 0
-261 249 0
-262 1 0
-262 -12 0
-263 12 0
-263 -1 0
-264 263 262 0
-265 -10 22 0
-266 265 0
-266 264 0
-267 10 0
-267 -22 0
-268 -1 12 0
-269 -12 1 0
-270 269 0
-270 268 0
-271 270 0
-271 267 0
-272 271 266 0
-273 12 0
-273 -2 0
-274 -16 0
-274 7 0
-275 274 0
-275 273 0
-276 275 272 0
-277 276 0
-277 261 0
-278 267 270 0
-279 264 265 0
-280 279 0
-280 278 0
-281 -12 2 0
-282 16 -7 0
-283 282 281 0
-284 283 0
-284 280 0
-285 9 -22 0
-286 -17 0
-286 -3 0
-287 286 285 0
-288 257 258 0
-289 250 253 0
-290 289 0
-290 288 0
-291 290 287 0
-292 291 0
-292 284 0
-293 292 277 0
-294 293 246 0
-295 294 0
-295 217 0
295 182 0
-69 -87 0
-72 -90 0
-73 -91 0
-74 -92 0
-93 -75 0
-75 -93 0
-76 -94 0
-77 -95 0
-78 -96 0
-96 -78 0
-97 -79 0
-98 -80 0
-99 -81 0
-81 -99 0
-100 -82 0
-82 -100 0
-83 -101 0
-101 -83 0
-102 -84 0
-84 -102 0
-85 -103 0
-103 -85 0
-49 -41 0
-41 -49 0
-42 -50 0
-43 -51 0
-51 -43 0
-52 -44 0
-44 -52 0
-45 -53 0
-46 -54 0
-54 -46 0
-55 -47 0
-58 -28 0
-28 -58 0
-61 -31 0
-31 -61 0
-32 -62 0
-62 -32 0
-34 -36 0
-37 -33 0
-65 -39 0
-66 -40 0
-40 -66 0
-68 -106 0
-126 -153 0
-153 -126 0
-127 -142 0
-142 -127 0
-154 -128 0
-155 -129 0
-156 -130 0
-157 -131 0
-158 -132 0
-143 -137 0
-137 -143 0
-138 -144 0
-139 -145 0
-146 -133 0
-147 -134 0
-148 -135 0
-161 -150 0
-162 -151 0
-151 -162 0
-163 -109 0
-164 -110 0
-165 -111 0
-111 -165 0
-166 -112 0
-112 -166 0
-113 -167 0
-114 -168 0
-115 -169 0
-170 -116 0
-116 -170 0
-117 -171 0
-118 -172 0
-173 -119 0
-122 -176 0
-176 -122 0
-177 -123 0
-123 -177 0
-124 -178 0
-125 -179 0
-179 -125 0
-233 -231 0
-234 -230 0
-230 -234 0
-236 -240 0
-240 -236 0
-241 -227 0
-242 -228 0
-243 -229 0
-229 -243 0
-267 -265 0
-265 -267 0
-270 -264 0
-280 -272 0
-273 -281 0
-282 -274 0
-274 -282 0
-275 -283 0
-283 -275 0
-284 -276 0
-276 -284 0
-285 -247 0
-248 -286 0
-286 -248 0
-287 -249 0
-249 -287 0
-253 -257 0
-250 -258 0
-258 -250 0
-290 -260 0
-260 -290 0
-261 -291 0
-291 -261 0
