projected/problems_b25_r0_d7_m100_s666/b25_d7_r0_s666_010.smt2
(set-logic QF_UF)
(declare-fun A0 () Bool)
(declare-fun A1 () Bool)
(declare-fun A2 () Bool)
(declare-fun A3 () Bool)
(declare-fun A4 () Bool)
(declare-fun A5 () Bool)
(declare-fun A6 () Bool)
(declare-fun A7 () Bool)
(declare-fun A8 () Bool)
(declare-fun A9 () Bool)
(declare-fun A10 () Bool)
(declare-fun A11 () Bool)
(declare-fun A12 () Bool)
(declare-fun A13 () Bool)
(declare-fun A14 () Bool)
(declare-fun A15 () Bool)
(declare-fun A16 () Bool)
(declare-fun A17 () Bool)
(declare-fun A18 () Bool)
(declare-fun A19 () Bool)
(declare-fun A20 () Bool)
(declare-fun A21 () Bool)
(declare-fun A22 () Bool)
(declare-fun A23 () Bool)
(declare-fun A24 () Bool)
(assert (let ((.def_0 (not A23))) (let ((.def_1 (not A9))) (let ((.def_2 (and .def_1 .def_0))) (let ((.def_3 (not A18))) (let ((.def_4 (= .def_3 A14))) (let ((.def_5 (and .def_4 .def_2))) (let ((.def_6 (not A3))) (let ((.def_7 (or .def_6 A2))) (let ((.def_8 (not A17))) (let ((.def_9 (not A13))) (let ((.def_10 (and .def_9 .def_8))) (let ((.def_11 (not .def_10))) (let ((.def_12 (and .def_11 .def_7))) (let ((.def_13 (or .def_12 .def_5))) (let ((.def_14 (or A15 A18))) (let ((.def_15 (not .def_14))) (let ((.def_16 (not A22))) (let ((.def_17 (or A8 .def_16))) (let ((.def_18 (or .def_17 .def_15))) (let ((.def_19 (not A14))) (let ((.def_20 (or .def_19 .def_6))) (let ((.def_21 (not .def_20))) (let ((.def_22 (not A11))) (let ((.def_23 (and .def_22 .def_8))) (let ((.def_24 (not .def_23))) (let ((.def_25 (or .def_24 .def_21))) (let ((.def_26 (not .def_25))) (let ((.def_27 (and .def_26 .def_18))) (let ((.def_28 (not .def_27))) (let ((.def_29 (and .def_28 .def_13))) (let ((.def_30 (not .def_29))) (let ((.def_31 (not A10))) (let ((.def_32 (or .def_9 .def_31))) (let ((.def_33 (not .def_32))) (let ((.def_34 (not A5))) (let ((.def_35 (or A23 .def_34))) (let ((.def_36 (or .def_35 .def_33))) (let ((.def_37 (not .def_36))) (let ((.def_38 (and .def_8 A21))) (let ((.def_39 (not .def_38))) (let ((.def_40 (and A17 .def_1))) (let ((.def_41 (or .def_40 .def_39))) (let ((.def_42 (not .def_41))) (let ((.def_43 (or .def_42 .def_37))) (let ((.def_44 (not A12))) (let ((.def_45 (= A22 .def_44))) (let ((.def_46 (not .def_45))) (let ((.def_47 (= .def_0 .def_16))) (let ((.def_48 (not .def_47))) (let ((.def_49 (and .def_48 .def_46))) (let ((.def_50 (not .def_49))) (let ((.def_51 (not A1))) (let ((.def_52 (and A12 .def_51))) (let ((.def_53 (and A19 A15))) (let ((.def_54 (= .def_53 .def_52))) (let ((.def_55 (or .def_54 .def_50))) (let ((.def_56 (not .def_55))) (let ((.def_57 (= .def_56 .def_43))) (let ((.def_58 (= .def_57 .def_30))) (let ((.def_59 (or .def_3 A3))) (let ((.def_60 (not .def_59))) (let ((.def_61 (and .def_51 .def_19))) (let ((.def_62 (not .def_61))) (let ((.def_63 (and .def_62 .def_60))) (let ((.def_64 (and A12 A21))) (let ((.def_65 (not A8))) (let ((.def_66 (and .def_19 .def_65))) (let ((.def_67 (and .def_66 .def_64))) (let ((.def_68 (or .def_67 .def_63))) (let ((.def_69 (= .def_51 A14))) (let ((.def_70 (not .def_69))) (let ((.def_71 (not A4))) (let ((.def_72 (or A17 .def_71))) (let ((.def_73 (and .def_72 .def_70))) (let ((.def_74 (not A16))) (let ((.def_75 (not A24))) (let ((.def_76 (and .def_75 .def_74))) (let ((.def_77 (and .def_8 A2))) (let ((.def_78 (and .def_77 .def_76))) (let ((.def_79 (= .def_78 .def_73))) (let ((.def_80 (or .def_79 .def_68))) (let ((.def_81 (not .def_80))) (let ((.def_82 (not A20))) (let ((.def_83 (and .def_82 A2))) (let ((.def_84 (and .def_65 .def_82))) (let ((.def_85 (or .def_84 .def_83))) (let ((.def_86 (not .def_85))) (let ((.def_87 (not A21))) (let ((.def_88 (and .def_87 .def_8))) (let ((.def_89 (not .def_88))) (let ((.def_90 (or .def_22 A17))) (let ((.def_91 (and .def_90 .def_89))) (let ((.def_92 (and .def_91 .def_86))) (let ((.def_93 (and A0 .def_51))) (let ((.def_94 (not .def_93))) (let ((.def_95 (and .def_16 A6))) (let ((.def_96 (and .def_95 .def_94))) (let ((.def_97 (or A24 .def_0))) (let ((.def_98 (= A15 A4))) (let ((.def_99 (not .def_98))) (let ((.def_100 (or .def_99 .def_97))) (let ((.def_101 (not .def_100))) (let ((.def_102 (or .def_101 .def_96))) (let ((.def_103 (and .def_102 .def_92))) (let ((.def_104 (not .def_103))) (let ((.def_105 (= .def_104 .def_81))) (let ((.def_106 (not .def_105))) (let ((.def_107 (and .def_106 .def_58))) (let ((.def_108 (not .def_107))) (let ((.def_109 (or A15 A9))) (let ((.def_110 (and A4 .def_3))) (let ((.def_111 (or .def_110 .def_109))) (let ((.def_112 (not .def_111))) (let ((.def_113 (and A6 .def_51))) (let ((.def_114 (not .def_113))) (let ((.def_115 (or A4 .def_3))) (let ((.def_116 (or .def_115 .def_114))) (let ((.def_117 (and .def_116 .def_112))) (let ((.def_118 (not .def_117))) (let ((.def_119 (not A19))) (let ((.def_120 (and .def_74 .def_119))) (let ((.def_121 (not .def_120))) (let ((.def_122 (or .def_8 .def_9))) (let ((.def_123 (not .def_122))) (let ((.def_124 (or .def_123 .def_121))) (let ((.def_125 (not .def_124))) (let ((.def_126 (not A7))) (let ((.def_127 (= A16 .def_126))) (let ((.def_128 (and A3 .def_0))) (let ((.def_129 (not .def_128))) (let ((.def_130 (and .def_129 .def_127))) (let ((.def_131 (or .def_130 .def_125))) (let ((.def_132 (not .def_131))) (let ((.def_133 (or .def_132 .def_118))) (let ((.def_134 (not .def_133))) (let ((.def_135 (or A20 .def_126))) (let ((.def_136 (not .def_135))) (let ((.def_137 (or A2 A1))) (let ((.def_138 (not .def_137))) (let ((.def_139 (or .def_138 .def_136))) (let ((.def_140 (not .def_139))) (let ((.def_141 (= A13 A8))) (let ((.def_142 (not .def_141))) (let ((.def_143 (and .def_16 A13))) (let ((.def_144 (or .def_143 .def_142))) (let ((.def_145 (or .def_144 .def_140))) (let ((.def_146 (not .def_145))) (let ((.def_147 (not A2))) (let ((.def_148 (and A8 .def_147))) (let ((.def_149 (or .def_31 .def_34))) (let ((.def_150 (not .def_149))) (let ((.def_151 (or .def_150 .def_148))) (let ((.def_152 (or A6 .def_3))) (let ((.def_153 (not A6))) (let ((.def_154 (and .def_153 .def_82))) (let ((.def_155 (not .def_154))) (let ((.def_156 (and .def_155 .def_152))) (let ((.def_157 (not .def_156))) (let ((.def_158 (and .def_157 .def_151))) (let ((.def_159 (and .def_158 .def_146))) (let ((.def_160 (not .def_159))) (let ((.def_161 (or .def_160 .def_134))) (let ((.def_162 (or .def_8 .def_51))) (let ((.def_163 (not .def_162))) (let ((.def_164 (and .def_34 A24))) (let ((.def_165 (or .def_164 .def_163))) (let ((.def_166 (= A18 A5))) (let ((.def_167 (not .def_166))) (let ((.def_168 (or .def_65 A14))) (let ((.def_169 (not .def_168))) (let ((.def_170 (or .def_169 .def_167))) (let ((.def_171 (not .def_170))) (let ((.def_172 (or .def_171 .def_165))) (let ((.def_173 (not .def_172))) (let ((.def_174 (or A14 .def_0))) (let ((.def_175 (and A11 A5))) (let ((.def_176 (not .def_175))) (let ((.def_177 (= .def_176 .def_174))) (let ((.def_178 (not .def_177))) (let ((.def_179 (or .def_8 A20))) (let ((.def_180 (and A3 .def_16))) (let ((.def_181 (and .def_180 .def_179))) (let ((.def_182 (not .def_181))) (let ((.def_183 (= .def_182 .def_178))) (let ((.def_184 (or .def_183 .def_173))) (let ((.def_185 (and A9 .def_87))) (let ((.def_186 (not .def_185))) (let ((.def_187 (= A11 A0))) (let ((.def_188 (= .def_187 .def_186))) (let ((.def_189 (and A11 .def_51))) (let ((.def_190 (or A15 .def_153))) (let ((.def_191 (not .def_190))) (let ((.def_192 (and .def_191 .def_189))) (let ((.def_193 (not .def_192))) (let ((.def_194 (and .def_193 .def_188))) (let ((.def_195 (not .def_194))) (let ((.def_196 (or A8 .def_87))) (let ((.def_197 (or A16 A2))) (let ((.def_198 (not .def_197))) (let ((.def_199 (or .def_198 .def_196))) (let ((.def_200 (not .def_199))) (let ((.def_201 (= A17 A24))) (let ((.def_202 (and A2 A1))) (let ((.def_203 (not .def_202))) (let ((.def_204 (= .def_203 .def_201))) (let ((.def_205 (not .def_204))) (let ((.def_206 (and .def_205 .def_200))) (let ((.def_207 (not .def_206))) (let ((.def_208 (= .def_207 .def_195))) (let ((.def_209 (not .def_208))) (let ((.def_210 (or .def_209 .def_184))) (let ((.def_211 (not .def_210))) (let ((.def_212 (or .def_211 .def_161))) (let ((.def_213 (and .def_212 .def_108))) (let ((.def_214 (not .def_213))) .def_214))))))))))))))))))))))))))))))))))))))))))))))))))))))))))))))))))))))))))))))))))))))))))))))))))))))))))))))))))))))))))))))))))))))))))))))))))))))))))))))))))))))))))))))))))))))))))))))))))))))))))))))))))))))))
(check-sat)
